n = 10;
k = 4;
maxsize = 10;
nML = 2;
nCL = 2;
deg = [4, 2, 2, 4, 4, 1, 3, 1, 3, 2];
ML = array2d(1..2, 1..2, [6, 3, 9, 10]);
CL = array2d(1..2, 1..2, [8, 4, 1, 7]);
A = array2d(1..10, 1..10, [ 0, 0, 1, 0, 1, 0, 0, 1, 1, 0, 0, 0, 0, 1, 1, 0, 0, 0, 0, 0, 1, 0, 0, 0, 0, 0, 0, 0, 1, 0, 0, 1, 0, 0, 1, 0, 1, 0, 1, 0, 1, 1, 0, 1, 0, 0, 0, 0, 0, 1, 0, 0, 0, 0, 0, 0, 1, 0, 0, 0, 0, 0, 0, 1, 0, 1, 0, 0, 0, 1, 1, 0, 0, 0, 0, 0, 0, 0, 0, 0, 1, 0, 1, 1, 0, 0, 0, 0, 0, 0, 0, 0, 0, 0, 1, 0, 1, 0, 0, 0 ]);
W = array2d(1..10, 1..10, [ 6, -4, -8, -2, 6, -2, 0, -1, -9, -7, -1, 6, 7, -4, 0, 0, -4, 0, 5, 8, -5, 7, -6, -4, -7, -3, -5, -7, -6, 5, 0, -7, 6, 5, 0, -3, -2, 3, 7, 3, -8, -4, -6, 8, 1, 2, -5, -4, 8, -4, -1, -2, 6, 7, 5, 3, 7, -8, 7, -7, 5, 5, -10, 8, -7, -6, 3, 8, 7, 2, 1, 8, -3, 10, -5, 7, -3, -6, -9, 6, -5, 10, -8, -10, 1, 2, 3, 6, -9, -3, 9, 8, 1, 0, -10, -7, -2, -7, 4, 6 ]);